\ Model _copy
\ LP format - for model browsing. Use MPS format to capture full model detail.
Minimize
 
Subject To
 lpack_def(('ng102',_'ng101'),k0,t24): lpack(('ng102',_'ng101'),k0,t24)
   = 0
 lpack_end: lpack(('ng102',_'ng101'),k0,t24) >= 39300
Bounds
 lpack(('ng102',_'ng101'),k0,t24) free
End
